SCIP version 5.0.0 [precision: 8 byte] [memory: block] [mode: optimized] [LP solver: NONE] [GitHash: 3bbd232]
Copyright (C) 2002-2017 Konrad-Zuse-Zentrum fuer Informationstechnik Berlin (ZIB)

External codes: 
  Readline EditLine w  GNU library for command line editing (gnu.org/s/readline)
  CppAD 20160000.1     Algorithmic Differentiation of C++ algorithms developed by B. Bell (www.coin-or.org/CppAD)
  ZLIB 1.2.5           General purpose compression library by J. Gailly and M. Adler (zlib.net)
  GMP 6.1.2            GNU Multiple Precision Arithmetic Library developed by T. Granlund (gmplib.org)

user parameter file <scip.set> not found - using default parameters

read problem <../../Split_data/output/statG/7/4_sample_statG.logreg>
============

File name	:	../../Split_data/output/statG/7/4_sample_statG.logreg
Problem name 	:	4_sample_statG
Number of data	:	800
Number of var	:	61
The given data has linear dependence
13 sets of column vector are linearly dependent:

[dim=1] time: 0.037798
[dim=2] time: 0.077816
[dim=3] time: 0.12105
[dim=4] time: 0.160208
[dim=5] time: 0.200892
[dim=6] time: 0.241695
[dim=7] time: 0.284261
[dim=8] time: 0.326073
[dim=9] time: 0.368669
[dim=10] time: 0.418162
[dim=11] time: 0.459295
[dim=12] time: 0.499253
[dim=13] time: 0.540776
[dim=14] time: 0.593996
[dim=15] time: 0.646105
[dim=16] time: 0.68771
[dim=17] time: 0.731257
[dim=18] time: 0.773884
[dim=19] time: 0.814982
[dim=20] time: 0.859471
[dim=21] time: 0.898572
[dim=22] time: 0.946699
[dim=23] time: 0.98342
[dim=24] Time of forward = 1.01727sec.
AIC: 756.871
k: 23

[dim=48] time: 0.105708
[dim=47] time: 0.180927
[dim=46] time: 0.264306
[dim=45] time: 0.326881
[dim=44] time: 0.392287
[dim=43] time: 0.461273
[dim=42] time: 0.510494
[dim=41] time: 0.570629
[dim=40] time: 0.631915
[dim=39] time: 0.684903
[dim=38] time: 0.74161
[dim=37] time: 0.795979
[dim=36] time: 0.850815
[dim=35] time: 0.896662
[dim=34] time: 0.935316
[dim=33] time: 0.984504
[dim=32] time: 1.02701
[dim=31] time: 1.06458
[dim=30] time: 1.11211
[dim=29] time: 1.15118
[dim=28] time: 1.18841
[dim=27] Time of backward = 1.21903sec.
AIC: 758.084
k: 28
